max_width = 60;
n_blocks = 73;
width = [16, 12, 9, 5, 3, 25, 6, 33, 14, 12, 6, 21, 10, 10, 2, 4, 2, 12, 10, 8, 6, 6, 3, 3, 2, 2, 25, 16, 14, 11, 6, 6, 5, 5, 3, 3, 34, 23, 14, 14, 6, 6, 21, 16, 16, 14, 13, 7, 6, 6, 5, 3, 12, 4, 21, 16, 13, 12, 12, 8, 7, 4, 2, 11, 6, 6, 3, 3, 3, 6, 4, 3, 2];
height = [18, 18, 18, 18, 18, 15, 15, 14, 13, 13, 13, 12, 12, 12, 12, 10, 10, 9, 9, 9, 9, 9, 9, 9, 9, 9, 7, 7, 7, 7, 7, 7, 7, 7, 7, 7, 6, 6, 6, 6, 6, 6, 5, 5, 5, 5, 5, 5, 5, 5, 5, 5, 4, 4, 3, 3, 3, 3, 3, 3, 3, 3, 3, 2, 2, 2, 2, 2, 2, 1, 1, 1, 1];
